Name:		mgval_0.45_3C
Optimal value:	-1
#Vehicles:	7
Capacity:	20
Depot Node:	1
#Nodes:		24
#Edges:		18
#Arcs:		25
#Required N:	16
#Required E:	9
#Required A:	13

ReN.	DEMAND	S. COST
N3	4	4
N4	8	8
N5	4	4
N6	5	5
N7	3	3
N8	7	7
N9	6	6
N12	3	3
N13	5	5
N15	1	1
N16	5	5
N18	2	2
N19	2	2
N20	2	2
N21	4	4
N22	4	4

ReE.	FROM N.	TO N.	T. COST	DEMAND	S. COST
E10	1	3	1	3	3
E11	11	15	1	4	4
E12	5	11	4	4	4
E13	10	11	3	5	5
E14	21	24	1	3	3
E15	10	20	2	4	4
E16	15	21	1	4	4
E17	14	18	3	6	6
E18	1	2	2	4	4

EDGE	FROM N.	TO N.	T. COST
NrE1	8	14	3
NrE2	16	17	4
NrE3	3	4	2
NrE4	13	17	3
NrE5	9	10	2
NrE6	22	23	3
NrE7	6	7	3
NrE8	5	10	2
NrE9	9	19	1

ReA.	FROM N.	TO N.	T. COST	DEMAND	S. COST
A13	12	6	1	2	2
A14	16	15	1	2	2
A15	13	12	1	1	1
A16	11	12	1	1	1
A17	17	18	1	1	1
A18	23	24	1	5	5
A19	6	12	1	1	1
A20	5	6	3	5	5
A21	8	7	1	3	3
A22	22	19	3	7	7
A23	13	14	2	4	4
A24	2	4	1	1	1
A25	23	20	1	2	2

ARC	FROM N.	TO N.	T. COST
NrA1	4	2	1
NrA2	9	3	1
NrA3	19	20	1
NrA4	4	5	2
NrA5	20	23	1
NrA6	21	20	2
NrA7	15	16	1
NrA8	12	11	1
NrA9	7	8	1
NrA10	16	12	1
NrA11	12	13	1
NrA12	18	17	1
